c {"clauses":7,"maxClauseSize":10,"minClauseSize":4,"totalLiterals":48,"variables":10}
p cnf 10 7
1 2 1 -3 -3 -3 -4 -5 0
-6 -3 -7 -3 3 0
4 -1 -8 2 -9 9 -6 -4 0
-2 1 -8 -9 -2 -4 1 6 -3 9 0
-8 -6 -7 2 -3 1 9 2 5 0
8 6 1 3 0
-6 10 -6 9 0
